data/solutions/planning/wellformed/moderate/highest_rank_objective/wellformed_moderate_instance71_cplex.sol
Elapsed time: 3.56
Nodes explored: 7132
Nodes left: -
Relative gap: -
Upper bound: 316382.0
Lower bound: -
C[0]=10206.0
C[1]=10206.0
C[2]=10206.0
C[3]=10205.0
C[4]=10204.0
y[0]=4
y[1]=1
y[2]=0
y[3]=3
y[4]=3
y[5]=0
y[6]=0
y[7]=1
y[8]=0
y[9]=3
y[10]=1
y[11]=2
y[12]=3
y[13]=4
y[14]=2
y[15]=1
y[16]=1
y[17]=4
y[18]=2
y[19]=4
y[20]=3
y[21]=2
y[22]=2
y[23]=1
y[24]=2
y[25]=4
y[26]=2
y[27]=2
y[28]=1
y[29]=3
y[30]=4
y[31]=4
y[32]=4
y[33]=1
y[34]=0
y[35]=1
y[36]=0
y[37]=4
y[38]=3
y[39]=3
y[40]=3
y[41]=4
y[42]=1
y[43]=2
y[44]=1
y[45]=0
y[46]=0
y[47]=0
y[48]=0
y[49]=2
